SPARKNaCl/why3-z3/sparknacl-hashing-sha256.adb_280_13_index_check2_1.smt2
;; produced by z3_gnatprove.drv ;;
(set-info :smt-lib-version 2.5)
(set-info :source |VC generated by SPARK 2014|)
(set-info :category industrial)
(set-info :status unknown)
;;; generated by SMT-LIB2 driver
;;; SMT-LIB2 driver: bit-vectors, common part
;;; SMT-LIB2: integer arithmetic
(define-fun __cdiv ((x Int) (y Int)) Int (ite (>= x 0) (div x y) (- (div (- x) y))))
(define-fun __cmod ((x Int) (y Int)) Int (ite (>= x 0) (mod x y) (- (mod (- x) y))))
(declare-datatypes ()
  ((int__ref (int__refqtmk (int__content Int)))))

(declare-datatypes ()
  ((bool__ref (bool__refqtmk (bool__content Bool)))))

;; "mod"
(define-fun mod1 ((x Int) (y Int)) Int
  (ite (<= 0 y) (mod x y) (- (mod (- x) y))))

(declare-sort byte 0)

;; "to_rep"
(declare-fun to_rep (byte) (_ BitVec 8))

;; "of_rep"
(declare-fun of_rep ((_ BitVec 8)) byte)

;; "inversion_axiom"
(assert
  (forall ((x byte)) (! (= (of_rep (to_rep x)) x) :pattern ((to_rep x)) )))

;; "range_axiom"
(assert true)

;; "coerce_axiom"
(assert
  (forall ((x (_ BitVec 8)))
    (! (= (to_rep (of_rep x)) x) :pattern ((to_rep (of_rep x))) )))

(declare-sort map1 0)

(declare-datatypes ()
  ((map__ref (map__refqtmk (map__content map1)))))

;; "has_bounds"
(declare-fun has_bounds (map1
  Int
  Int) Bool)

;; "get"
(declare-fun get (map1
  Int) byte)

;; "slide"
(declare-fun slide (map1
  Int
  Int) map1)

;; "slide_eq"
(assert
  (forall ((a map1) (first Int))
    (! (= (slide a first first) a) :pattern ((slide a first first)) )))

;; "slide_def"
(assert
  (forall ((a map1) (old_first Int) (new_first Int))
    (! (and
         (forall ((i Int))
           (! (= (get (slide a old_first new_first) i) (get
                                                         a
                                                         (- i (- new_first old_first)))) :pattern (
           (get
             (slide a old_first new_first)
             i)) ))
         (forall ((new_last Int))
           (! (=>
                (has_bounds a old_first (- new_last (- new_first old_first)))
                (has_bounds (slide a old_first new_first) new_first new_last)) :pattern (
           (has_bounds
             (slide a old_first new_first)
             new_first
             new_last)) ))) :pattern ((slide a old_first new_first)) )))

;; "slice"
(declare-fun slice (map1
  Int
  Int) map1)

;; "slice_eq"
(assert
  (forall ((a map1) (f Int) (l Int))
    (! (=> (has_bounds a f l) (= (slice a f l) a)) :pattern ((slice a f l)
    (has_bounds a f l)) )))

;; "slice_slice"
(assert
  (forall ((a map1) (f1 Int) (l1 Int) (f2 Int) (l2 Int))
    (! (=>
         (and (<= f1 f2) (<= l2 l1))
         (= (slice (slice a f1 l1) f2 l2) (slice a f2 l2))) :pattern (
    (slice
      (slice a f1 l1)
      f2
      l2)) )))

;; "slice_def"
(assert
  (forall ((a map1) (f Int) (l Int))
    (! (forall ((i Int))
         (! (=> (and (<= f i) (<= i l)) (= (get (slice a f l) i) (get a i))) :pattern (
         (get
           (slice a f l)
           i)) :pattern ((get a i)) )) :pattern ((slice a f l)) )))

;; "slice_has_bounds"
(assert
  (forall ((a map1) (f Int) (l Int))
    (! (has_bounds (slice a f l) f l) :pattern ((has_bounds
                                                  (slice a f l)
                                                  f
                                                  l)) )))

(declare-sort tinteger_32B 0)

;; "tinteger_32B'int"
(declare-fun tinteger_32Bqtint (tinteger_32B) Int)

;; "tinteger_32B'axiom"
(assert
  (forall ((i tinteger_32B))
    (and
      (<= (- 2147483648) (tinteger_32Bqtint i))
      (<= (tinteger_32Bqtint i) 2147483647))))

;; "in_range"
(define-fun in_range ((x Int)) Bool
  (and (<= (- 2147483648) x) (<= x 2147483647)))

;; "to_rep"
(define-fun to_rep1 ((x tinteger_32B)) Int
  (tinteger_32Bqtint x))

;; "of_rep"
(declare-fun of_rep1 (Int) tinteger_32B)

;; "inversion_axiom"
(assert
  (forall ((x tinteger_32B))
    (! (= (of_rep1 (to_rep1 x)) x) :pattern ((to_rep1 x)) )))

;; "range_axiom"
(assert
  (forall ((x tinteger_32B))
    (! (in_range (to_rep1 x)) :pattern ((to_rep1 x)) )))

;; "coerce_axiom"
(assert
  (forall ((x Int))
    (! (=> (in_range x) (= (to_rep1 (of_rep1 x)) x)) :pattern ((to_rep1
                                                                 (of_rep1 x))) )))

;; "in_range"
(define-fun in_range1 ((x Int)) Bool
  (and (<= 0 x) (<= x 2147483647)))

(declare-datatypes ()
  ((t (tqtmk (rec__first tinteger_32B)(rec__last tinteger_32B)))))

;; "mk"
(declare-fun mk (Int
  Int) t)

;; "mk_def"
(assert
  (forall ((f Int) (l Int))
    (! (=>
         (in_range f)
         (=>
           (in_range l)
           (and
             (= (to_rep1 (rec__first (mk f l))) f)
             (= (to_rep1 (rec__last (mk f l))) l)))) :pattern ((mk f l)) )))

;; "dynamic_property"
(define-fun dynamic_property ((range_first Int) (range_last Int) (low Int) (high Int)) Bool
  (and
    (in_range low)
    (and
      (in_range high)
      (=> (<= low high) (and (in_range1 low) (in_range1 high))))))

(declare-datatypes ()
  ((us_t (us_tqtmk (elts map1)(rt t)))))

;; "to_array"
(define-fun to_array ((a us_t)) map1
  (elts a))

;; "of_array"
(define-fun of_array ((a map1) (f Int) (l Int)) us_t
  (us_tqtmk a (mk f l)))

;; "first"
(define-fun first ((a us_t)) Int
  (to_rep1 (rec__first (rt a))))

;; "last"
(define-fun last ((a us_t)) Int
  (to_rep1 (rec__last (rt a))))

;; "length"
(define-fun length ((a us_t)) Int
  (ite (<= (first a) (last a)) (+ (- (last a) (first a)) 1) 0))

;; "well_formed"
(define-fun well_formed ((a us_t)) Bool
  (has_bounds
    (elts a)
    (to_rep1 (rec__first (rt a)))
    (to_rep1 (rec__last (rt a)))))

(declare-const m us_t)

(declare-const iv_256 map1)

;; "in_range"
(define-fun in_range2 ((x Int)) Bool
  (and (<= (- 2147483648) x) (<= x 2147483647)))

;; "dynamic_invariant"
(define-fun dynamic_invariant ((temp___expr_326 us_t) (temp___is_init_322 Bool) (temp___skip_constant_323 Bool) (temp___do_toplevel_324 Bool) (temp___do_typ_inv_325 Bool)) Bool
  (and
    (=>
      (not (= temp___skip_constant_323 true))
      (dynamic_property
        0
        2147483647
        (first temp___expr_326)
        (last temp___expr_326)))
    (well_formed temp___expr_326)))

;; "ada___ada___sparknacl__hashing__sha256__iv_256__aggregate_def"
(declare-fun ada___ada___sparknacl__hashing__sha256__iv_256__aggregate_def ((_ BitVec 8)
  (_ BitVec 8)
  (_ BitVec 8)
  (_ BitVec 8)
  (_ BitVec 8)
  (_ BitVec 8)
  (_ BitVec 8)
  (_ BitVec 8)
  (_ BitVec 8)
  (_ BitVec 8)
  (_ BitVec 8)
  (_ BitVec 8)
  (_ BitVec 8)
  (_ BitVec 8)
  (_ BitVec 8)
  (_ BitVec 8)
  (_ BitVec 8)
  (_ BitVec 8)
  (_ BitVec 8)
  (_ BitVec 8)
  (_ BitVec 8)
  (_ BitVec 8)
  (_ BitVec 8)
  (_ BitVec 8)
  (_ BitVec 8)
  (_ BitVec 8)
  (_ BitVec 8)
  (_ BitVec 8)
  (_ BitVec 8)
  (_ BitVec 8)
  (_ BitVec 8)
  (_ BitVec 8)) map1)

;; "in_range"
(define-fun in_range3 ((x Int)) Bool
  (and (<= 0 x) (<= x 63)))

;; "temp_____aggregate_def_675"
(declare-fun temp_____aggregate_def_675 ((_ BitVec 8)) map1)

;; "iv_256__def_axiom"
(assert
  (= iv_256 (let ((temp___205 (ada___ada___sparknacl__hashing__sha256__iv_256__aggregate_def
                                #x6A
                                #x09
                                #xE6
                                #x67
                                #xBB
                                #x67
                                #xAE
                                #x85
                                #x3C
                                #x6E
                                #xF3
                                #x72
                                #xA5
                                #x4F
                                #xF5
                                #x3A
                                #x51
                                #x0E
                                #x52
                                #x7F
                                #x9B
                                #x05
                                #x68
                                #x8C
                                #x1F
                                #x83
                                #xD9
                                #xAB
                                #x5B
                                #xE0
                                #xCD
                                #x19)))
              (let ((temp___206 temp___205)) temp___206))))

;; "def_axiom"
(assert
  (forall ((temp___170 (_ BitVec 8)) (temp___171 (_ BitVec 8)) (temp___172 (_ BitVec 8)) (temp___173 (_ BitVec 8)) (temp___174 (_ BitVec 8)) (temp___175 (_ BitVec 8)) (temp___176 (_ BitVec 8)) (temp___177 (_ BitVec 8)) (temp___178 (_ BitVec 8)) (temp___179 (_ BitVec 8)) (temp___180 (_ BitVec 8)) (temp___181 (_ BitVec 8)) (temp___182 (_ BitVec 8)) (temp___183 (_ BitVec 8)) (temp___184 (_ BitVec 8)) (temp___185 (_ BitVec 8)) (temp___186 (_ BitVec 8)) (temp___187 (_ BitVec 8)) (temp___188 (_ BitVec 8)) (temp___189 (_ BitVec 8)) (temp___190 (_ BitVec 8)) (temp___191 (_ BitVec 8)) (temp___192 (_ BitVec 8)) (temp___193 (_ BitVec 8)) (temp___194 (_ BitVec 8)) (temp___195 (_ BitVec 8)) (temp___196 (_ BitVec 8)) (temp___197 (_ BitVec 8)) (temp___198 (_ BitVec 8)) (temp___199 (_ BitVec 8)) (temp___200 (_ BitVec 8)) (temp___201 (_ BitVec 8)))
    (let ((temp___202 (ada___ada___sparknacl__hashing__sha256__iv_256__aggregate_def
                        temp___170
                        temp___171
                        temp___172
                        temp___173
                        temp___174
                        temp___175
                        temp___176
                        temp___177
                        temp___178
                        temp___179
                        temp___180
                        temp___181
                        temp___182
                        temp___183
                        temp___184
                        temp___185
                        temp___186
                        temp___187
                        temp___188
                        temp___189
                        temp___190
                        temp___191
                        temp___192
                        temp___193
                        temp___194
                        temp___195
                        temp___196
                        temp___197
                        temp___198
                        temp___199
                        temp___200
                        temp___201)))
      (and
        (and
          (and
            (= (to_rep (get temp___202 0)) temp___170)
            (= (to_rep (get temp___202 1)) temp___171))
          (and
            (and
              (and
                (and
                  (and
                    (= (to_rep (get temp___202 2)) temp___172)
                    (= (to_rep (get temp___202 3)) temp___173))
                  (and
                    (= (to_rep (get temp___202 4)) temp___174)
                    (= (to_rep (get temp___202 5)) temp___175)))
                (and
                  (and
                    (= (to_rep (get temp___202 6)) temp___176)
                    (= (to_rep (get temp___202 7)) temp___177))
                  (and
                    (= (to_rep (get temp___202 8)) temp___178)
                    (= (to_rep (get temp___202 9)) temp___179))))
              (and
                (and
                  (and
                    (= (to_rep (get temp___202 10)) temp___180)
                    (= (to_rep (get temp___202 11)) temp___181))
                  (and
                    (= (to_rep (get temp___202 12)) temp___182)
                    (= (to_rep (get temp___202 13)) temp___183)))
                (and
                  (and
                    (= (to_rep (get temp___202 14)) temp___184)
                    (= (to_rep (get temp___202 15)) temp___185))
                  (= (to_rep (get temp___202 16)) temp___186))))
            (and
              (and
                (and
                  (and
                    (= (to_rep (get temp___202 17)) temp___187)
                    (= (to_rep (get temp___202 18)) temp___188))
                  (and
                    (= (to_rep (get temp___202 19)) temp___189)
                    (= (to_rep (get temp___202 20)) temp___190)))
                (and
                  (and
                    (= (to_rep (get temp___202 21)) temp___191)
                    (= (to_rep (get temp___202 22)) temp___192))
                  (and
                    (= (to_rep (get temp___202 23)) temp___193)
                    (= (to_rep (get temp___202 24)) temp___194))))
              (and
                (and
                  (and
                    (= (to_rep (get temp___202 25)) temp___195)
                    (= (to_rep (get temp___202 26)) temp___196))
                  (and
                    (= (to_rep (get temp___202 27)) temp___197)
                    (= (to_rep (get temp___202 28)) temp___198)))
                (and
                  (and
                    (= (to_rep (get temp___202 29)) temp___199)
                    (= (to_rep (get temp___202 30)) temp___200))
                  (= (to_rep (get temp___202 31)) temp___201))))))
        (=>
          (and
            (and (and (<= 0 0) (<= 0 31)) (and (<= 0 1) (<= 1 31)))
            (and
              (and
                (and
                  (and
                    (and (and (<= 0 2) (<= 2 31)) (and (<= 0 3) (<= 3 31)))
                    (and (and (<= 0 4) (<= 4 31)) (and (<= 0 5) (<= 5 31))))
                  (and
                    (and (and (<= 0 6) (<= 6 31)) (and (<= 0 7) (<= 7 31)))
                    (and (and (<= 0 8) (<= 8 31)) (and (<= 0 9) (<= 9 31)))))
                (and
                  (and
                    (and
                      (and (<= 0 10) (<= 10 31))
                      (and (<= 0 11) (<= 11 31)))
                    (and
                      (and (<= 0 12) (<= 12 31))
                      (and (<= 0 13) (<= 13 31))))
                  (and
                    (and
                      (and (<= 0 14) (<= 14 31))
                      (and (<= 0 15) (<= 15 31)))
                    (and (<= 0 16) (<= 16 31)))))
              (and
                (and
                  (and
                    (and
                      (and (<= 0 17) (<= 17 31))
                      (and (<= 0 18) (<= 18 31)))
                    (and
                      (and (<= 0 19) (<= 19 31))
                      (and (<= 0 20) (<= 20 31))))
                  (and
                    (and
                      (and (<= 0 21) (<= 21 31))
                      (and (<= 0 22) (<= 22 31)))
                    (and
                      (and (<= 0 23) (<= 23 31))
                      (and (<= 0 24) (<= 24 31)))))
                (and
                  (and
                    (and
                      (and (<= 0 25) (<= 25 31))
                      (and (<= 0 26) (<= 26 31)))
                    (and
                      (and (<= 0 27) (<= 27 31))
                      (and (<= 0 28) (<= 28 31))))
                  (and
                    (and
                      (and (<= 0 29) (<= 29 31))
                      (and (<= 0 30) (<= 30 31)))
                    (and (<= 0 31) (<= 31 31)))))))
          (has_bounds temp___202 0 31))))))

(declare-const output map1)

(declare-const h map1)

(declare-const x map1)

(declare-const b Int)

(declare-const final_block_first Int)

;; "final_block_first'unused"
(define-fun final_block_firstqtunused () int__ref
  (int__refqtmk final_block_first))

;; "b'unused"
(define-fun bqtunused () int__ref
  (int__refqtmk b))

;; "x'unused"
(define-fun xqtunused () map__ref
  (map__refqtmk x))

;; "h'unused"
(define-fun hqtunused () map__ref
  (map__refqtmk h))

;; "Assume"
(assert (has_bounds iv_256 0 31))

(declare-const temp___766 map1)

;; "H"
(assert (= (to_rep (get temp___766 0)) #x6A))

;; "H"
(assert (= (to_rep (get temp___766 1)) #x09))

;; "H"
(assert (= (to_rep (get temp___766 2)) #xE6))

;; "H"
(assert (= (to_rep (get temp___766 3)) #x67))

;; "H"
(assert (= (to_rep (get temp___766 4)) #xBB))

;; "H"
(assert (= (to_rep (get temp___766 5)) #x67))

;; "H"
(assert (= (to_rep (get temp___766 6)) #xAE))

;; "H"
(assert (= (to_rep (get temp___766 7)) #x85))

;; "H"
(assert (= (to_rep (get temp___766 8)) #x3C))

;; "H"
(assert (= (to_rep (get temp___766 9)) #x6E))

;; "H"
(assert (= (to_rep (get temp___766 10)) #xF3))

;; "H"
(assert (= (to_rep (get temp___766 11)) #x72))

;; "H"
(assert (= (to_rep (get temp___766 12)) #xA5))

;; "H"
(assert (= (to_rep (get temp___766 13)) #x4F))

;; "H"
(assert (= (to_rep (get temp___766 14)) #xF5))

;; "H"
(assert (= (to_rep (get temp___766 15)) #x3A))

;; "H"
(assert (= (to_rep (get temp___766 16)) #x51))

;; "H"
(assert (= (to_rep (get temp___766 17)) #x0E))

;; "H"
(assert (= (to_rep (get temp___766 18)) #x52))

;; "H"
(assert (= (to_rep (get temp___766 19)) #x7F))

;; "H"
(assert (= (to_rep (get temp___766 20)) #x9B))

;; "H"
(assert (= (to_rep (get temp___766 21)) #x05))

;; "H"
(assert (= (to_rep (get temp___766 22)) #x68))

;; "H"
(assert (= (to_rep (get temp___766 23)) #x8C))

;; "H"
(assert (= (to_rep (get temp___766 24)) #x1F))

;; "H"
(assert (= (to_rep (get temp___766 25)) #x83))

;; "H"
(assert (= (to_rep (get temp___766 26)) #xD9))

;; "H"
(assert (= (to_rep (get temp___766 27)) #xAB))

;; "H"
(assert (= (to_rep (get temp___766 28)) #x5B))

;; "H"
(assert (= (to_rep (get temp___766 29)) #xE0))

;; "H"
(assert (= (to_rep (get temp___766 30)) #xCD))

;; "H"
(assert (= (to_rep (get temp___766 31)) #x19))

;; "H"
(assert (has_bounds temp___766 0 31))

;; "H"
(assert
  (= temp___766 (ada___ada___sparknacl__hashing__sha256__iv_256__aggregate_def
                  #x6A
                  #x09
                  #xE6
                  #x67
                  #xBB
                  #x67
                  #xAE
                  #x85
                  #x3C
                  #x6E
                  #xF3
                  #x72
                  #xA5
                  #x4F
                  #xF5
                  #x3A
                  #x51
                  #x0E
                  #x52
                  #x7F
                  #x9B
                  #x05
                  #x68
                  #x8C
                  #x1F
                  #x83
                  #xD9
                  #xAB
                  #x5B
                  #xE0
                  #xCD
                  #x19)))

;; "ada___ada___sparknacl__hashing__sha256__iv_256__aggregate_def'result'unused"
(define-fun ada___ada___sparknacl__hashing__sha256__iv_256__aggregate_defqtresultqtunused 
  () map1
  temp___766)

;; "Assume"
(assert (= temp___766 iv_256))

;; "Assume"
(assert (has_bounds output 0 31))

;; "Assume"
(assert (dynamic_invariant m true false true true))

;; "Assume"
(assert true)

;; "Assume"
(assert (has_bounds h 0 31))

;; "Assume"
(assert true)

;; "Assume"
(assert (has_bounds x 0 127))

;; "Assume"
(assert true)

;; "Assume"
(assert (in_range3 b))

;; "Assume"
(assert true)

;; "Assume"
(assert (in_range2 final_block_first))

(declare-const h1 map1)

;; "h'unused"
(define-fun hqtunused1 () map__ref
  (map__refqtmk h1))

;; "H"
(assert (= h1 iv_256))

(declare-const temp___679 map1)

;; "H"
(assert (has_bounds temp___679 0 127))

;; "H"
(assert
  (forall ((temp___678 Int))
    (! (=>
         (and (<= 0 temp___678) (<= temp___678 127))
         (= (to_rep (get temp___679 temp___678)) #x00)) :pattern ((get
                                                                    temp___679
                                                                    temp___678)) )))

;; "H"
(assert (= temp___679 (temp_____aggregate_def_675 #x00)))

;; "temp_____aggregate_def_675'result'unused"
(define-fun temp_____aggregate_def_675qtresultqtunused () map1
  temp___679)

(declare-const x1 map1)

;; "x'unused"
(define-fun xqtunused1 () map__ref
  (map__refqtmk x1))

;; "H"
(assert (= x1 temp___679))

;; "map__content'result'unused"
(define-fun map__contentqtresultqtunused () map1
  h1)

;; "param__x'unused"
(define-fun param__xqtunused () map__ref
  (map__refqtmk h1))

;; "map__ref'mk'result'unused"
(define-fun map__refqtmkqtresultqtunused () map__ref
  (map__refqtmk h1))

(declare-const param__x map1)

;; "param__x'unused"
(define-fun param__xqtunused1 () map__ref
  (map__refqtmk param__x))

;; "H"
(assert (has_bounds param__x 0 31))

;; "H"
(assert true)

;; "H"
(assert true)

;; "map__content'result'unused"
(define-fun map__contentqtresultqtunused1 () map1
  param__x)

(declare-const h2 map1)

;; "h'unused"
(define-fun hqtunused2 () map__ref
  (map__refqtmk h2))

;; "H"
(assert (= h2 param__x))

;; "o"
(define-fun o () Int
  (length m))

;; "length'result'unused"
(define-fun lengthqtresultqtunused () Int
  o)

;; "o"
(define-fun o1 () Int
  (mod1 o 64))

;; "mod_'result'unused"
(define-fun mod_qtresultqtunused () Int
  o1)

;; "Ensures"
(assert (in_range3 o1))

;; "range_check_'result'unused"
(define-fun range_check_qtresultqtunused () Int
  o1)

(declare-const b1 Int)

;; "b'unused"
(define-fun bqtunused1 () int__ref
  (int__refqtmk b1))

;; "H"
(assert (= b1 o1))

;; "int__content'result'unused"
(define-fun int__contentqtresultqtunused () Int
  b1)

;; "o"
(define-fun o2 () Bool
  (ite (< 0 b1) true false))

;; "infix >'result'unused"
(define-fun infix_gtqtresultqtunused () Bool
  o2)

(declare-const spark__branch Bool)

;; "spark__branch'unused"
(define-fun spark__branchqtunused () bool__ref
  (bool__refqtmk spark__branch))

;; "H"
(assert (= spark__branch o2))

;; "bool__content'result'unused"
(define-fun bool__contentqtresultqtunused () Bool
  spark__branch)

;; "H"
(assert (= spark__branch true))

;; "int__content'result'unused"
(define-fun int__contentqtresultqtunused1 () Int
  b1)

;; "o"
(define-fun o3 () Int
  (last m))

;; "last'result'unused"
(define-fun lastqtresultqtunused () Int
  o3)

;; "o"
(define-fun o4 () Int
  (- o3 b1))

;; "infix -'result'unused"
(define-fun infix_mnqtresultqtunused () Int
  o4)

;; "Ensures"
(assert (in_range o4))

;; "range_check_'result'unused"
(define-fun range_check_qtresultqtunused1 () Int
  o4)

;; "o"
(define-fun o5 () Int
  (+ o4 1))

;; "infix +'result'unused"
(define-fun infix_plqtresultqtunused () Int
  o5)

;; "Ensures"
(assert (in_range o5))

;; "range_check_'result'unused"
(define-fun range_check_qtresultqtunused2 () Int
  o5)

(declare-const final_block_first1 Int)

;; "final_block_first'unused"
(define-fun final_block_firstqtunused1 () int__ref
  (int__refqtmk final_block_first1))

;; "H"
(assert (= final_block_first1 o5))

;; "temp___688"
(define-fun temp___688 () Int
  (last m))

;; "last'result'unused"
(define-fun lastqtresultqtunused1 () Int
  temp___688)

;; "int__content'result'unused"
(define-fun int__contentqtresultqtunused2 () Int
  final_block_first1)

;; "Assert"
(assert
  (=>
    (<= final_block_first1 temp___688)
    (and
      (and
        (<= (first m) final_block_first1)
        (<= final_block_first1 (last m)))
      (and (<= (first m) temp___688) (<= temp___688 (last m))))))

;; "o"
(define-fun o6 () map1
  (to_array m))

;; "to_array'result'unused"
(define-fun to_arrayqtresultqtunused () map1
  o6)

;; "o"
(define-fun o7 () map1
  (slice o6 final_block_first1 temp___688))

;; "slice'result'unused"
(define-fun sliceqtresultqtunused () map1
  o7)

;; "temp___689"
(define-fun temp___689 () us_t
  (of_array o7 final_block_first1 temp___688))

;; "of_array'result'unused"
(define-fun of_arrayqtresultqtunused () us_t
  temp___689)

;; "o"
(define-fun o8 () Int
  final_block_first1)

;; "first'result'unused"
(define-fun firstqtresultqtunused () Int
  o8)

;; "o"
(define-fun o9 () map1
  o7)

;; "to_array'result'unused"
(define-fun to_arrayqtresultqtunused1 () map1
  o9)

;; "temp___690"
(define-fun temp___690 () map1
  (slide o9 o8 0))

;; "slide'result'unused"
(define-fun slideqtresultqtunused () map1
  temp___690)

;; "Assert"
(assert
  (ite (<= final_block_first1 temp___688)
    (and
      (<= 0 (- b1 1))
      (= (- temp___688 final_block_first1) (- (- b1 1) 0)))
    (< (- b1 1) 0)))

;; "int__content'result'unused"
(define-fun int__contentqtresultqtunused3 () Int
  b1)

;; "o"
(define-fun o10 () Int
  (- b1 1))

;; "infix -'result'unused"
(define-fun infix_mnqtresultqtunused1 () Int
  o10)

;; "temp___691"
(define-fun temp___691 () us_t
  (of_array temp___690 0 o10))

;; "of_array'result'unused"
(define-fun of_arrayqtresultqtunused1 () us_t
  temp___691)

;; "int__content'result'unused"
(define-fun int__contentqtresultqtunused4 () Int
  b1)

;; "temp___693"
(define-fun temp___693 () Int
  (- b1 1))

;; "infix -'result'unused"
(define-fun infix_mnqtresultqtunused2 () Int
  temp___693)

;; "Assert"
(assert
  (=>
    (<= 0 temp___693)
    (and
      (and (<= 0 0) (<= 0 127))
      (and (<= 0 temp___693) (<= temp___693 127)))))

;; "map__content'result'unused"
(define-fun map__contentqtresultqtunused2 () map1
  x1)

;; "o"
(define-fun o11 () map1
  (slice x1 0 temp___693))

;; "slice'result'unused"
(define-fun sliceqtresultqtunused1 () map1
  o11)

;; "temp___694"
(define-fun temp___694 () us_t
  (of_array o11 0 temp___693))

;; "of_array'result'unused"
(define-fun of_arrayqtresultqtunused2 () us_t
  temp___694)

;; "Assert"
(assert
  (ite (<= 0 o10)
    (and (<= 0 temp___693) (= (- o10 0) (- temp___693 0)))
    (< temp___693 0)))

;; "int__content'result'unused"
(define-fun int__contentqtresultqtunused5 () Int
  b1)

;; "temp___698"
(define-fun temp___698 () Int
  (- b1 1))

;; "infix -'result'unused"
(define-fun infix_mnqtresultqtunused3 () Int
  temp___698)

;; "infix <='result'unused"
(define-fun infix_lseqqtresultqtunused () Bool
  (ite (<= 0 temp___698) true false))

;; "H"
(assert (<= 0 temp___698))

;; Goal "def'vc"
;; File "sparknacl-hashing-sha256.ads", line 12, characters 0-0
(assert
  (not (<= 0 127)))

(check-sat)
